24
caffeine from CFF_ideal.sdf
N      1.047000    -0.000000    -1.312000
C     -0.208000    -0.000000    -1.790000
C      2.176000     0.000000    -2.246000
C      1.285000    -0.001000     0.016000
N     -1.276000    -0.000000    -0.971000
O     -0.384000     0.000000    -2.993000
C     -2.629000    -0.000000    -1.533000
C     -1.098000    -0.000000     0.402000
C      0.193000     0.005000     0.911000
N     -1.934000    -0.000000     1.444000
O      2.428000    -0.000000     0.437000
N      0.068000    -0.000000     2.286000
C     -1.251000    -0.000000     2.560000
C      1.161000    -0.000000     3.261000
H      1.800000     0.001000    -3.269000
H      2.783000     0.890000    -2.082000
H      2.783000    -0.889000    -2.083000
H     -2.570000    -0.000000    -2.622000
H     -3.162000    -0.890000    -1.198000
H     -3.162000     0.889000    -1.198000
H     -1.679000     0.000000     3.552000
H      1.432000    -1.028000     3.503000
H      2.024000     0.513000     2.839000
H      0.839000     0.513000     4.167000
